p cnf 16 38
16 0 
-16 12 13 0 
-16 7 6 3 0 
-16 -14 -5 -4 0 
-16 7 -12 -5 0 
-13 7 -8 0 
-8 10 0 
14 7 0 
-7 5 0 
-7 -6 0 
-7 10 -12 0 
-7 -8 -12 0 
-7 4 -5 0 
5 -3 10 0 
5 10 0 
5 4 0 
-10 8 0 
-8 12 0 
-7 -14 0 
-10 -6 4 0 
-10 14 12 0 
-4 -12 0 
-8 -6 0 
14 6 0 
5 13 -7 0 
-7 -13 -6 0 
-10 -3 0 
-10 -3 0 
3 -13 6 0 
-8 -13 -12 0 
-13 -12 0 
-13 6 12 0 
-13 -6 0 
-15 0 
9 0 
11 0 
-2 0 
-1 0 
